SDVRP instances/custom_instances/p02_21_splitx10_0.vrp
NAME:p02_21_splitx10_
BEST_KNOWN: 0
COMMENT: 0
DIMENSION: 345
CAPACITY: 1400
EDGE_WEIGHT_FORMAT: FUNCTION
EDGE_WEIGHT_TYPE: EXACT_2D
NODE_COORD_SECTION
1 0.00000 0.00000
2 -40 -35
3 -40 -35
4 15 -36
5 15 -36
6 15 -36
7 15 -36
8 15 -36
9 15 -36
10 -39 -10
11 -39 -10
12 17 -40
13 17 -40
14 17 -40
15 -32 -16
16 -32 -16
17 -32 -16
18 8 14
19 8 14
20 8 14
21 8 14
22 8 14
23 8 14
24 8 14
25 -38 -42
26 -38 -42
27 -38 -42
28 -38 -42
29 -38 -42
30 43 26
31 43 26
32 43 26
33 43 26
34 43 26
35 -29 -34
36 -29 -34
37 -25 30
38 -25 30
39 -25 30
40 -25 30
41 -19 11
42 -19 11
43 -19 11
44 -42 -44
45 -42 -44
46 -42 -44
47 -42 -44
48 -42 -44
49 -21 28
50 -21 28
51 -21 28
52 -21 28
53 -21 28
54 -21 28
55 -12 40
56 -12 40
57 -12 40
58 -12 40
59 -32 -13
60 -32 -13
61 -32 -13
62 -32 -13
63 -32 -13
64 -32 -13
65 -14 47
66 -14 47
67 -14 47
68 -14 47
69 -14 47
70 -18 11
71 -18 11
72 -18 11
73 -18 11
74 -18 11
75 -18 11
76 -18 11
77 11 -8
78 11 -8
79 11 -8
80 22 -38
81 22 -38
82 22 -38
83 22 -38
84 49 -11
85 49 -11
86 23 -2
87 23 -2
88 23 -2
89 -5 -2
90 -5 -2
91 -5 -2
92 -5 -2
93 -25 1
94 -25 1
95 -25 1
96 -25 1
97 -25 1
98 14 -6
99 14 -6
100 14 -6
101 14 -6
102 14 -6
103 25 -16
104 25 -16
105 25 -16
106 25 -16
107 25 -16
108 3 -34
109 3 -34
110 3 -34
111 48 -46
112 48 -46
113 48 -46
114 48 -46
115 48 -46
116 48 -46
117 48 -46
118 -44 45
119 -44 45
120 -44 45
121 -44 45
122 -44 45
123 -44 45
124 15 -19
125 15 -19
126 15 -19
127 15 -19
128 15 -19
129 15 -19
130 15 -19
131 19 -39
132 19 -39
133 19 -39
134 19 -39
135 19 -39
136 19 -39
137 -43 43
138 -43 43
139 -43 43
140 -43 43
141 -43 43
142 -43 43
143 -43 43
144 -43 43
145 -40 18
146 -40 18
147 -40 18
148 -40 18
149 -40 18
150 -16 -42
151 -16 -42
152 -16 -42
153 -16 -42
154 -16 -42
155 -16 -42
156 -27 6
157 -27 6
158 21 24
159 21 24
160 21 24
161 21 24
162 -11 -45
163 -11 -45
164 -11 -45
165 -11 -45
166 -11 -45
167 -2 -3
168 -2 -3
169 -2 -3
170 -2 -3
171 -2 -3
172 -2 -3
173 7 36
174 7 36
175 7 36
176 -22 26
177 -22 26
178 -22 26
179 -22 26
180 -22 26
181 -29 -6
182 -29 -6
183 -29 -6
184 -29 -6
185 -29 -6
186 -29 -6
187 -29 -6
188 -29 -6
189 16 -28
190 16 -28
191 16 -28
192 16 -28
193 16 -28
194 16 -28
195 30 37
196 30 37
197 30 37
198 -23 -37
199 -23 -37
200 -23 -37
201 -23 -37
202 -47 41
203 -47 41
204 -47 41
205 -47 41
206 -47 41
207 40 46
208 40 46
209 40 46
210 40 46
211 40 46
212 40 46
213 40 46
214 16 -6
215 16 -6
216 16 -6
217 16 -6
218 16 -6
219 16 -6
220 16 -6
221 27 -6
222 27 -6
223 27 -6
224 27 -6
225 27 -6
226 50 -22
227 50 -22
228 11 -7
229 11 -7
230 11 -7
231 11 -7
232 11 -7
233 11 -7
234 21 15
235 21 15
236 21 15
237 21 15
238 21 15
239 21 15
240 21 15
241 21 15
242 -32 -49
243 -32 -49
244 -32 -49
245 -32 -49
246 -1 7
247 -1 7
248 -7 -44
249 -7 -44
250 38 -30
251 38 -30
252 -13 -3
253 -13 -3
254 -13 -3
255 -13 -3
256 -13 -3
257 -13 -3
258 -13 -39
259 -13 -39
260 -13 -39
261 -32 7
262 -32 7
263 -32 7
264 -5 24
265 -5 24
266 -5 24
267 -5 24
268 -5 24
269 -24 -41
270 -24 -41
271 -24 -41
272 -24 -41
273 36 12
274 36 12
275 36 12
276 36 12
277 36 12
278 36 12
279 36 12
280 -24 44
281 -24 44
282 -24 44
283 -24 44
284 -24 44
285 -24 44
286 -24 44
287 -27 -37
288 -16 50
289 -16 50
290 -16 50
291 -16 50
292 -16 50
293 -16 50
294 -3 44
295 -3 44
296 27 -44
297 27 -44
298 27 -44
299 27 -44
300 -46 -41
301 -46 -41
302 -46 -41
303 -46 -41
304 -46 -41
305 25 45
306 25 45
307 25 45
308 25 45
309 41 1
310 41 1
311 41 1
312 -28 -30
313 -28 -30
314 -28 -30
315 -28 -30
316 27 2
317 27 2
318 27 2
319 27 2
320 27 2
321 -14 -19
322 -14 -19
323 -12 -43
324 -12 -43
325 -12 -43
326 -12 -43
327 -12 -43
328 -12 -43
329 -23 -46
330 -23 -46
331 -23 -46
332 -23 -46
333 -23 -46
334 -23 -46
335 -24 5
336 -24 5
337 -24 5
338 -24 5
339 -24 5
340 -24 5
341 -24 5
342 -29 -49
343 -29 -49
344 -29 -49
345 -29 -49
DEMAND_SECTION
1 0
2 280
3 280
4 280
5 140
6 70
7 14
8 14
9 12
10 280
11 140
12 280
13 70
14 10
15 280
16 280
17 10
18 280
19 140
20 70
21 14
22 14
23 14
24 8
25 280
26 280
27 14
28 14
29 12
30 280
31 280
32 14
33 14
34 2
35 280
36 280
37 280
38 14
39 14
40 12
41 280
42 140
43 10
44 140
45 70
46 14
47 14
48 12
49 280
50 280
51 14
52 14
53 14
54 8
55 280
56 140
57 14
58 6
59 280
60 140
61 14
62 14
63 14
64 8
65 280
66 280
67 14
68 14
69 2
70 280
71 280
72 70
73 14
74 14
75 14
76 8
77 140
78 70
79 10
80 280
81 280
82 14
83 6
84 280
85 280
86 280
87 140
88 70
89 140
90 14
91 14
92 12
93 280
94 14
95 14
96 14
97 8
98 280
99 14
100 14
101 14
102 8
103 140
104 14
105 14
106 14
107 8
108 280
109 280
110 10
111 280
112 280
113 70
114 14
115 14
116 14
117 8
118 280
119 280
120 70
121 14
122 14
123 12
124 280
125 280
126 70
127 14
128 14
129 14
130 8
131 140
132 14
133 14
134 14
135 14
136 4
137 280
138 280
139 70
140 14
141 14
142 14
143 14
144 4
145 280
146 280
147 14
148 14
149 2
150 280
151 280
152 70
153 14
154 14
155 2
156 280
157 70
158 140
159 14
160 14
161 12
162 280
163 70
164 14
165 14
166 2
167 280
168 280
169 70
170 14
171 14
172 12
173 280
174 140
175 70
176 280
177 280
178 70
179 14
180 6
181 280
182 140
183 70
184 14
185 14
186 14
187 14
188 4
189 280
190 140
191 70
192 14
193 14
194 2
195 280
196 280
197 140
198 140
199 14
200 14
201 12
202 280
203 280
204 70
205 14
206 6
207 280
208 140
209 14
210 14
211 14
212 14
213 4
214 140
215 70
216 14
217 14
218 14
219 14
220 4
221 280
222 140
223 70
224 14
225 6
226 280
227 140
228 140
229 14
230 14
231 14
232 14
233 4
234 280
235 140
236 70
237 14
238 14
239 14
240 14
241 4
242 280
243 140
244 14
245 6
246 280
247 140
248 280
249 10
250 280
251 10
252 280
253 14
254 14
255 14
256 14
257 4
258 280
259 280
260 10
261 280
262 280
263 70
264 280
265 280
266 14
267 14
268 2
269 280
270 70
271 14
272 6
273 280
274 140
275 14
276 14
277 14
278 14
279 4
280 280
281 280
282 14
283 14
284 14
285 14
286 4
287 280
288 280
289 14
290 14
291 14
292 14
293 4
294 140
295 70
296 280
297 14
298 14
299 2
300 280
301 140
302 14
303 14
304 12
305 280
306 14
307 14
308 12
309 280
310 280
311 10
312 280
313 14
314 14
315 2
316 280
317 140
318 14
319 14
320 2
321 280
322 10
323 280
324 280
325 70
326 14
327 14
328 12
329 280
330 280
331 70
332 14
333 14
334 2
335 280
336 70
337 14
338 14
339 14
340 14
341 4
342 280
343 280
344 70
345 10
DEPOT_SECTION
1
-1
EOF