SDVRP instances/custom_instances/p02_21_splitx10_0.sol
344 -1 2 34 35 311 -8 6 4 5 7 11 13 12 131 134 132 130 133 135 81 82 79 80 -21 20 22 23 19 17 18 234 236 240 238 237 239 233 235 -30 33 31 29 32 212 208 207 206 210 211 209 305 307 306 304 -37 38 39 36 57 56 54 55 263 264 -41 42 40 70 72 74 69 73 75 71 -53 48 52 50 51 49 177 175 179 178 176 -59 63 60 62 61 58 16 14 15 321 320 -89 90 88 91 94 95 92 96 93 155 156 334 338 340 337 339 335 336 -99 97 123 125 127 124 126 129 128 76 77 78 231 230 232 229 228 227 -100 98 101 216 213 214 219 217 215 218 86 87 85 318 315 319 317 316 -103 105 102 104 106 225 226 84 83 224 222 221 223 -107 109 108 3 188 192 189 190 191 193 -117 118 120 119 122 121 201 203 205 202 204 -138 139 143 136 140 141 142 137 283 279 285 282 280 284 281 -148 146 145 147 144 261 260 262 -151 154 152 153 150 149 259 258 257 -160 158 157 159 195 196 194 174 173 172 -167 166 170 171 168 169 -183 181 180 186 184 182 185 187 9 10 254 251 255 252 256 253 -199 200 198 197 268 271 269 270 331 330 328 333 329 332 -220 310 308 309 278 273 277 276 272 275 274 -245 246 -247 248 161 165 162 163 164 326 327 324 325 323 322 -249 250 113 116 111 110 112 115 114 298 295 297 296 -265 266 267 64 65 66 67 68 288 290 289 292 291 287 293 294 -286 244 242 243 241 342 341 343 344 -301 303 300 302 299 46 47 45 43 44 26 24 25 27 28 314 313 312 0 





OBJ=
2501.262
BEST_KNOWN=
0.000